CPXPARAM_MIP_Tolerances_MIPGap                   0
Lazy constraint(s) or lazy constraint callback is present.
    Disabling dual reductions (CPX_PARAM_REDUCE) in presolve.
    Disabling non-linear reductions (CPX_PARAM_PRELINEAR) in presolve.
         Disabling repeat represolve because of lazy constraint/incumbent callback.
Tried aggregator 1 time.
MIP Presolve eliminated 460 rows and 8 columns.
MIP Presolve modified 5 coefficients.
Reduced MIP has 165 rows, 472 columns, and 338 nonzeros.
Reduced MIP has 323 binaries, 0 generals, 0 SOSs, and 0 indicators.
Presolve time = 0.00 sec. (0.35 ticks)
Probing time = 0.00 sec. (0.08 ticks)
Clique table members: 15.
MIP emphasis: balance optimality and feasibility.
MIP search method: traditional branch-and-cut.
Parallel mode: none, using 1 thread.
Root relaxation solution time = 0.00 sec. (0.20 ticks)

        Nodes                                         Cuts/
   Node  Left     Objective  IInf  Best Integer    Best Bound    ItCnt     Gap         Variable B NodeID Parent  Depth

      0     0        8.0000     4                      8.0000        4         
*     0     0      integral     0       10.0000      Cuts: 19       50    0.00%
      0     0        cutoff             10.0000       10.0000       50    0.00%                        0             0
Elapsed time = 0.02 sec. (1.80 ticks, tree = 0.01 MB, solutions = 1)

Clique cuts applied:  11
Mixed integer rounding cuts applied:  6
User cuts applied:  4

Root node processing (before b&c):
  Real time             =    0.02 sec. (1.82 ticks)
Sequential b&c:
  Real time             =    0.00 sec. (0.00 ticks)
                          ------------
Total (root+branch&cut) =    0.02 sec. (1.82 ticks)
